
Gurobi 9.0.3 (linux64, Python) logging started Tue Sep 15 15:47:01 2020

Using license file /home/richarms/gurobi.lic
Set parameter LogFile to value gurobi.log
Academic license - for non-commercial use only
